data;
param n:=100;
param w:=1 -473 2 368 3 -94 4 38 5 -70 6 -459 7 100 8 434 9 99 10 -449 11 177 12 402 13 -456 14 186 15 286 16 -439 17 -205 18 -329 19 425 20 -309 21 94 22 101 23 -467 24 -490 25 302 26 280 27 97 28 -282 29 273 30 489 31 27 32 496 33 245 34 -334 35 -378 36 485 37 -115 38 10 39 -315 40 -433 41 387 42 193 43 -114 44 262 45 -243 46 -58 47 58 48 62 49 -153 50 -399 51 75 52 -451 53 -386 54 -15 55 327 56 62 57 137 58 332 59 -188 60 -428 61 88 62 361 63 -30 64 -461 65 -192 66 264 67 -171 68 156 69 217 70 402 71 258 72 -438 73 -111 74 256 75 332 76 460 77 323 78 434 79 -279 80 18 81 -500 82 -445 83 425 84 337 85 217 86 -308 87 43 88 -296 89 -90 90 -178 91 -474 92 159 93 -428 94 -24 95 154 96 289 97 133 98 -242 99 316 100 248;
